Maximize
  - 2.4591862477476 edge_0_1_0_0 - 3.1851675956826 edge_0_2_0_0
   - 2.9625937235632 edge_0_3_0_0 - 5.3814270957993 edge_0_4_0_0
   - 2.955707200853 edge_0_5_0_0 - 2.1329831667342 edge_0_6_0_0
   - 3.057298715934 edge_0_8_0_0 - 1.6291328154773 edge_0_9_0_0
   - 3.0458315887997 edge_0_11_0_0 - 3.204145374458 edge_0_13_0_0
   - 4.017077486688001 edge_0_15_0_0 - 1.9343871714279 edge_0_16_0_0
   - 2.95477 edge_0_18_0_0 - 0.4297302109531159 edge_1_2_0_0
   - 0.3739952654205601 edge_1_3_0_0 + 0.0669983599422311 edge_1_5_0_0
   - 0.34222930844346 edge_1_6_0_0 - 0.7775718079218659 edge_1_8_0_0
   - 0.141333862891948 edge_1_10_0_0 - 0.4814854501051666 edge_1_11_0_0
   - 0.0683151 edge_2_1_0_0 + 1.119422682026381 edge_2_3_0_0
   + 1.356875846009095 edge_2_4_0_0 + 1.168780338325397 edge_2_5_0_0
   + 0.27437329957044 edge_2_6_0_0 + 0.0652307420470488 edge_2_8_0_0
   + 0.5943551877106761 edge_2_9_0_0 + 0.3332964575107866 edge_2_10_0_0
   - 0.1715919872445591 edge_2_11_0_0 - 0.5341948141943923 edge_2_12_0_0
   - 0.7681891640952838 edge_2_13_0_0 - 0.7215733737092682 edge_2_15_0_0
   - 0.5875749742286094 edge_2_18_0_0 + 1.069471297408499 edge_2_19_0_0
   + 1.34404175739924 edge_3_1_0_0 + 2.992343906346788 edge_3_2_0_0
   + 3.225047539640557 edge_3_3_0_0 + 2.491109971932437 edge_3_4_0_0
   + 2.557124054382362 edge_3_5_0_0 + 1.8458511673544 edge_3_6_0_0
   + 0.0925523529046615 edge_3_7_0_0 + 0.9716018882172094 edge_3_8_0_0
   + 1.775876399529347 edge_3_9_0_0 + 0.9029470502774216 edge_3_10_0_0
   + 1.536499223409943 edge_3_11_0_0 + 1.672500341489884 edge_3_12_0_0
   - 0.3167866219724378 edge_3_13_0_0 - 0.307364936653206 edge_3_14_0_0
   + 0.3708764305129506 edge_3_15_0_0 - 0.519886311438315 edge_3_16_0_0
   - 0.4551696693719448 edge_3_17_0_0 + 0.2861469484935421 edge_3_18_0_0
   + 3.967062243265867 edge_3_19_0_0 - 0.7711560914757482 edge_4_3_0_0
   - 0.2948514453767882 edge_4_5_0_0 - 0.43796023905252 edge_4_6_0_0
   - 0.4039278861021981 edge_5_1_0_0 - 0.3667730005858498 edge_5_2_0_0
   - 0.2381860471265038 edge_5_3_0_0 - 0.0185867024562326 edge_5_4_0_0
   - 0.016483144349052 edge_5_6_0_0 - 0.4830807835940925 edge_5_8_0_0
   - 0.1686176802066154 edge_5_9_0_0 - 0.1872181915104443 edge_5_10_0_0
   + 0.32507324308314 edge_6_1_0_0 + 1.0709685705516 edge_6_2_0_0
   + 0.55162590070732 edge_6_3_0_0 - 0.32643202106259 edge_6_4_0_0
   + 0.7610331398808 edge_6_5_0_0 + 0.41737622767518 edge_6_7_0_0
   + 3.0377287241534 edge_6_8_0_0 + 1.663707884904 edge_6_9_0_0
   + 1.8956469591612 edge_6_10_0_0 + 2.299735055559 edge_6_11_0_0
   + 0.8863934264015599 edge_6_12_0_0 + 0.43246119662929 edge_6_13_0_0
   + 0.9491960312883501 edge_6_14_0_0 + 1.2934776120672 edge_6_15_0_0
   + 0.1167366329172933 edge_6_16_0_0 - 0.3008309218265 edge_6_17_0_0
   + 0.3238709062202445 edge_6_18_0_0 + 2.0596065494454 edge_6_19_0_0
   - 0.5315969719219675 edge_7_5_0_0 + 0.1275421197618313 edge_7_10_0_0
   + 0.1157066665172498 edge_8_1_0_0 + 1.069521826309244 edge_8_2_0_0
   + 0.7705038438974996 edge_8_3_0_0 + 0.4175764832079834 edge_8_4_0_0
   + 0.9240871571836309 edge_8_5_0_0 + 1.7678092575198 edge_8_6_0_0
   + 4.341909899444877 edge_8_7_0_0 + 2.214920293209087 edge_8_9_0_0
   + 1.130997943232164 edge_8_10_0_0 + 2.289792028258066 edge_8_11_0_0
   + 1.674046580158103 edge_8_12_0_0 + 2.3533563015213 edge_8_13_0_0
   + 0.4916672587207185 edge_8_14_0_0 + 0.62949066424275 edge_8_15_0_0
   - 0.4076384981738272 edge_8_16_0_0 - 0.0211909650472686 edge_8_17_0_0
   + 0.3394673429152582 edge_8_18_0_0 + 2.07741313807777 edge_8_19_0_0
   - 0.5225476353870713 edge_9_2_0_0 - 0.7100703958394423 edge_9_3_0_0
   - 0.0994695827507825 edge_9_5_0_0 - 0.2726361657012585 edge_9_6_0_0
   - 0.2053850944733528 edge_9_8_0_0 - 0.2838542547753003 edge_9_10_0_0
   + 0.0130161499542672 edge_9_11_0_0 - 0.0415262618897755 edge_9_12_0_0
   - 0.6502412688170524 edge_10_8_0_0 - 0.1170409204301722 edge_10_9_0_0
   + 0.2758713719190551 edge_10_11_0_0 + 0.3488351304144715 edge_10_12_0_0
   - 0.0955112580307137 edge_11_1_0_0 + 0.1012054978582718 edge_11_2_0_0
   - 0.294605313568134 edge_11_3_0_0 - 2.000693250800554 edge_11_4_0_0
   - 0.5819959794329939 edge_11_5_0_0 - 0.57438046697097 edge_11_6_0_0
   + 0.7462849923669167 edge_11_8_0_0 + 0.2564764549650396 edge_11_9_0_0
   + 0.5403955793560864 edge_11_10_0_0 + 1.761008741888064 edge_11_12_0_0
   + 0.9760208315181106 edge_11_13_0_0 + 1.546206213985692 edge_11_14_0_0
   + 1.788963318824595 edge_11_15_0_0 - 0.0173244188553796 edge_11_16_0_0
   + 0.0408778426558993 edge_11_17_0_0 + 0.3940724614635809 edge_11_18_0_0
   + 2.102758602995966 edge_11_19_0_0 - 0.1552406588430252 edge_12_9_0_0
   - 0.4027826477394031 edge_12_11_0_0 - 0.0710567377494811 edge_12_13_0_0
   - 0.3244147311648063 edge_12_16_0_0 - 0.615258551374432 edge_13_1_0_0
   - 0.5912639298369747 edge_13_2_0_0 - 0.9116795228803241 edge_13_3_0_0
   - 0.7853834039479668 edge_13_5_0_0 - 0.3352545363566358 edge_13_6_0_0
   + 1.256977977991574 edge_13_7_0_0 - 0.4832471336642495 edge_13_8_0_0
   - 0.2807330962646882 edge_13_9_0_0 - 0.6675192346411242 edge_13_10_0_0
   + 0.6509626996042748 edge_13_11_0_0 + 0.9826832788272595 edge_13_12_0_0
   + 1.246523729202796 edge_13_14_0_0 + 0.849198688009156 edge_13_15_0_0
   + 0.8355450818239416 edge_13_16_0_0 + 0.9204128209207628 edge_13_17_0_0
   + 1.270282638656237 edge_13_18_0_0 + 1.379764845227203 edge_13_19_0_0
   - 0.1754157449790428 edge_14_12_0_0 - 0.262995809788561 edge_14_13_0_0
   + 0.3444576033499673 edge_14_17_0_0 + 0.3934137782116159 edge_14_18_0_0
   - 0.5430218213713258 edge_15_1_0_0 - 0.7037862871508141 edge_15_2_0_0
   + 0.3705933435291264 edge_15_3_0_0 - 0.00160266987244616 edge_15_4_0_0
   - 0.0628033230260027 edge_15_5_0_0 + 0.48971140987692 edge_15_6_0_0
   + 0.7694172595285753 edge_15_8_0_0 + 0.836225417979746 edge_15_9_0_0
   + 0.1984306109599566 edge_15_10_0_0 + 1.325339919548179 edge_15_11_0_0
   + 1.210618425928599 edge_15_12_0_0 + 2.5978191952062 edge_15_13_0_0
   + 3.780276290767344 edge_15_14_0_0 + 1.549675005693728 edge_15_17_0_0
   + 3.6268067467884 edge_15_18_0_0 + 3.346775457872174 edge_15_19_0_0
   - 0.0569508202822736 edge_16_2_0_0 - 0.3126763303334258 edge_16_3_0_0
   - 0.3773264544326181 edge_16_5_0_0 - 0.0397160108633559 edge_16_6_0_0
   - 0.1386041416168555 edge_16_8_0_0 - 0.0424541515132485 edge_16_9_0_0
   + 0.1443245429131479 edge_16_11_0_0 + 0.1721693430630497 edge_16_12_0_0
   + 0.9070078011631305 edge_16_13_0_0 + 0.5358885948725242 edge_16_17_0_0
   + 0.8511095871214217 edge_16_18_0_0 + 0.5590777647021057 edge_16_19_0_0
   - 0.8775196733034351 edge_17_6_0_0 + 0.429279647760292 edge_17_13_0_0
   - 0.197446161930894 edge_17_14_0_0 + 0.3505257771202758 edge_17_15_0_0
   - 0.0782369489070385 edge_17_16_0_0 + 0.8081993100415387 edge_17_18_0_0
   + 0.3550640980900199 edge_17_19_0_0 - 0.4067607657826326 edge_18_2_0_0
   - 1.41521275663 edge_18_3_0_0 - 0.97854674031027 edge_18_4_0_0
   - 0.974600326167477 edge_18_5_0_0 - 0.6267890772863932 edge_18_6_0_0
   - 0.8722138955511131 edge_18_8_0_0 - 0.4700735113932 edge_18_9_0_0
   - 0.74173272894424 edge_18_11_0_0 + 0.17983310321626 edge_18_12_0_0
   + 1.737546751838388 edge_18_13_0_0 + 1.6537772311727 edge_18_14_0_0
   + 0.8498240830674 edge_18_15_0_0 + 0.5845546366773097 edge_18_16_0_0
   + 3.498039575811 edge_18_17_0_0 + 0.9864380036966099 edge_18_19_0_0
   - 0.0326469128214585 edge_19_17_0_0 - 0.3281734394725425 edge_19_18_0_0
Subject To
 one_parent_1: edge_0_1_0_0 + edge_2_1_0_0 + edge_3_1_0_0 + edge_5_1_0_0
   + edge_6_1_0_0 + edge_8_1_0_0 + edge_11_1_0_0 + edge_13_1_0_0
   + edge_15_1_0_0 = 1
 consume_one_flow_unit_1: flow_0_1_0_0 - flow_1_2_0_0 - flow_1_3_0_0
   - flow_1_5_0_0 - flow_1_6_0_0 - flow_1_8_0_0 - flow_1_10_0_0
   - flow_1_11_0_0 + flow_2_1_0_0 + flow_3_1_0_0 + flow_5_1_0_0
   + flow_6_1_0_0 + flow_8_1_0_0 + flow_11_1_0_0 + flow_13_1_0_0
   + flow_15_1_0_0 = 1
 one_parent_2: edge_0_2_0_0 + edge_1_2_0_0 + edge_3_2_0_0 + edge_5_2_0_0
   + edge_6_2_0_0 + edge_8_2_0_0 + edge_9_2_0_0 + edge_11_2_0_0
   + edge_13_2_0_0 + edge_15_2_0_0 + edge_16_2_0_0 + edge_18_2_0_0 = 1
 consume_one_flow_unit_2: flow_0_2_0_0 + flow_1_2_0_0 - flow_2_1_0_0
   - flow_2_3_0_0 - flow_2_4_0_0 - flow_2_5_0_0 - flow_2_6_0_0
   - flow_2_8_0_0 - flow_2_9_0_0 - flow_2_10_0_0 - flow_2_11_0_0
   - flow_2_12_0_0 - flow_2_13_0_0 - flow_2_15_0_0 - flow_2_18_0_0
   - flow_2_19_0_0 + flow_3_2_0_0 + flow_5_2_0_0 + flow_6_2_0_0
   + flow_8_2_0_0 + flow_9_2_0_0 + flow_11_2_0_0 + flow_13_2_0_0
   + flow_15_2_0_0 + flow_16_2_0_0 + flow_18_2_0_0 = 1
 one_parent_3: edge_0_3_0_0 + edge_1_3_0_0 + edge_2_3_0_0 + edge_3_3_0_0
   + edge_4_3_0_0 + edge_5_3_0_0 + edge_6_3_0_0 + edge_8_3_0_0
   + edge_9_3_0_0 + edge_11_3_0_0 + edge_13_3_0_0 + edge_15_3_0_0
   + edge_16_3_0_0 + edge_18_3_0_0 = 1
 consume_one_flow_unit_3: flow_0_3_0_0 + flow_1_3_0_0 + flow_2_3_0_0
   - flow_3_1_0_0 - flow_3_2_0_0 - flow_3_4_0_0 - flow_3_5_0_0
   - flow_3_6_0_0 - flow_3_7_0_0 - flow_3_8_0_0 - flow_3_9_0_0
   - flow_3_10_0_0 - flow_3_11_0_0 - flow_3_12_0_0 - flow_3_13_0_0
   - flow_3_14_0_0 - flow_3_15_0_0 - flow_3_16_0_0 - flow_3_17_0_0
   - flow_3_18_0_0 - flow_3_19_0_0 + flow_4_3_0_0 + flow_5_3_0_0
   + flow_6_3_0_0 + flow_8_3_0_0 + flow_9_3_0_0 + flow_11_3_0_0
   + flow_13_3_0_0 + flow_15_3_0_0 + flow_16_3_0_0 + flow_18_3_0_0 = 1
 one_parent_4: edge_0_4_0_0 + edge_2_4_0_0 + edge_3_4_0_0 + edge_5_4_0_0
   + edge_6_4_0_0 + edge_8_4_0_0 + edge_11_4_0_0 + edge_15_4_0_0
   + edge_18_4_0_0 = 1
 consume_one_flow_unit_4: flow_0_4_0_0 + flow_2_4_0_0 + flow_3_4_0_0
   - flow_4_3_0_0 - flow_4_5_0_0 - flow_4_6_0_0 + flow_5_4_0_0
   + flow_6_4_0_0 + flow_8_4_0_0 + flow_11_4_0_0 + flow_15_4_0_0
   + flow_18_4_0_0 = 1
 one_parent_5: edge_0_5_0_0 + edge_1_5_0_0 + edge_2_5_0_0 + edge_3_5_0_0
   + edge_4_5_0_0 + edge_6_5_0_0 + edge_7_5_0_0 + edge_8_5_0_0
   + edge_9_5_0_0 + edge_11_5_0_0 + edge_13_5_0_0 + edge_15_5_0_0
   + edge_16_5_0_0 + edge_18_5_0_0 = 1
 consume_one_flow_unit_5: flow_0_5_0_0 + flow_1_5_0_0 + flow_2_5_0_0
   + flow_3_5_0_0 + flow_4_5_0_0 - flow_5_1_0_0 - flow_5_2_0_0
   - flow_5_3_0_0 - flow_5_4_0_0 - flow_5_6_0_0 - flow_5_8_0_0
   - flow_5_9_0_0 - flow_5_10_0_0 + flow_6_5_0_0 + flow_7_5_0_0
   + flow_8_5_0_0 + flow_9_5_0_0 + flow_11_5_0_0 + flow_13_5_0_0
   + flow_15_5_0_0 + flow_16_5_0_0 + flow_18_5_0_0 = 1
 one_parent_6: edge_0_6_0_0 + edge_1_6_0_0 + edge_2_6_0_0 + edge_3_6_0_0
   + edge_4_6_0_0 + edge_5_6_0_0 + edge_8_6_0_0 + edge_9_6_0_0
   + edge_11_6_0_0 + edge_13_6_0_0 + edge_15_6_0_0 + edge_16_6_0_0
   + edge_17_6_0_0 + edge_18_6_0_0 = 1
 consume_one_flow_unit_6: flow_0_6_0_0 + flow_1_6_0_0 + flow_2_6_0_0
   + flow_3_6_0_0 + flow_4_6_0_0 + flow_5_6_0_0 - flow_6_1_0_0
   - flow_6_2_0_0 - flow_6_3_0_0 - flow_6_4_0_0 - flow_6_5_0_0
   - flow_6_7_0_0 - flow_6_8_0_0 - flow_6_9_0_0 - flow_6_10_0_0
   - flow_6_11_0_0 - flow_6_12_0_0 - flow_6_13_0_0 - flow_6_14_0_0
   - flow_6_15_0_0 - flow_6_16_0_0 - flow_6_17_0_0 - flow_6_18_0_0
   - flow_6_19_0_0 + flow_8_6_0_0 + flow_9_6_0_0 + flow_11_6_0_0
   + flow_13_6_0_0 + flow_15_6_0_0 + flow_16_6_0_0 + flow_17_6_0_0
   + flow_18_6_0_0 = 1
 one_parent_7: edge_3_7_0_0 + edge_6_7_0_0 + edge_8_7_0_0 + edge_13_7_0_0
   = 1
 consume_one_flow_unit_7: flow_3_7_0_0 + flow_6_7_0_0 - flow_7_5_0_0
   - flow_7_10_0_0 + flow_8_7_0_0 + flow_13_7_0_0 = 1
 one_parent_8: edge_0_8_0_0 + edge_1_8_0_0 + edge_2_8_0_0 + edge_3_8_0_0
   + edge_5_8_0_0 + edge_6_8_0_0 + edge_9_8_0_0 + edge_10_8_0_0
   + edge_11_8_0_0 + edge_13_8_0_0 + edge_15_8_0_0 + edge_16_8_0_0
   + edge_18_8_0_0 = 1
 consume_one_flow_unit_8: flow_0_8_0_0 + flow_1_8_0_0 + flow_2_8_0_0
   + flow_3_8_0_0 + flow_5_8_0_0 + flow_6_8_0_0 - flow_8_1_0_0
   - flow_8_2_0_0 - flow_8_3_0_0 - flow_8_4_0_0 - flow_8_5_0_0
   - flow_8_6_0_0 - flow_8_7_0_0 - flow_8_9_0_0 - flow_8_10_0_0
   - flow_8_11_0_0 - flow_8_12_0_0 - flow_8_13_0_0 - flow_8_14_0_0
   - flow_8_15_0_0 - flow_8_16_0_0 - flow_8_17_0_0 - flow_8_18_0_0
   - flow_8_19_0_0 + flow_9_8_0_0 + flow_10_8_0_0 + flow_11_8_0_0
   + flow_13_8_0_0 + flow_15_8_0_0 + flow_16_8_0_0 + flow_18_8_0_0 = 1
 one_parent_9: edge_0_9_0_0 + edge_2_9_0_0 + edge_3_9_0_0 + edge_5_9_0_0
   + edge_6_9_0_0 + edge_8_9_0_0 + edge_10_9_0_0 + edge_11_9_0_0
   + edge_12_9_0_0 + edge_13_9_0_0 + edge_15_9_0_0 + edge_16_9_0_0
   + edge_18_9_0_0 = 1
 consume_one_flow_unit_9: flow_0_9_0_0 + flow_2_9_0_0 + flow_3_9_0_0
   + flow_5_9_0_0 + flow_6_9_0_0 + flow_8_9_0_0 - flow_9_2_0_0
   - flow_9_3_0_0 - flow_9_5_0_0 - flow_9_6_0_0 - flow_9_8_0_0
   - flow_9_10_0_0 - flow_9_11_0_0 - flow_9_12_0_0 + flow_10_9_0_0
   + flow_11_9_0_0 + flow_12_9_0_0 + flow_13_9_0_0 + flow_15_9_0_0
   + flow_16_9_0_0 + flow_18_9_0_0 = 1
 one_parent_10: edge_1_10_0_0 + edge_2_10_0_0 + edge_3_10_0_0
   + edge_5_10_0_0 + edge_6_10_0_0 + edge_7_10_0_0 + edge_8_10_0_0
   + edge_9_10_0_0 + edge_11_10_0_0 + edge_13_10_0_0 + edge_15_10_0_0 = 1
 consume_one_flow_unit_10: flow_1_10_0_0 + flow_2_10_0_0 + flow_3_10_0_0
   + flow_5_10_0_0 + flow_6_10_0_0 + flow_7_10_0_0 + flow_8_10_0_0
   + flow_9_10_0_0 - flow_10_8_0_0 - flow_10_9_0_0 - flow_10_11_0_0
   - flow_10_12_0_0 + flow_11_10_0_0 + flow_13_10_0_0 + flow_15_10_0_0 = 1
 one_parent_11: edge_0_11_0_0 + edge_1_11_0_0 + edge_2_11_0_0
   + edge_3_11_0_0 + edge_6_11_0_0 + edge_8_11_0_0 + edge_9_11_0_0
   + edge_10_11_0_0 + edge_12_11_0_0 + edge_13_11_0_0 + edge_15_11_0_0
   + edge_16_11_0_0 + edge_18_11_0_0 = 1
 consume_one_flow_unit_11: flow_0_11_0_0 + flow_1_11_0_0 + flow_2_11_0_0
   + flow_3_11_0_0 + flow_6_11_0_0 + flow_8_11_0_0 + flow_9_11_0_0
   + flow_10_11_0_0 - flow_11_1_0_0 - flow_11_2_0_0 - flow_11_3_0_0
   - flow_11_4_0_0 - flow_11_5_0_0 - flow_11_6_0_0 - flow_11_8_0_0
   - flow_11_9_0_0 - flow_11_10_0_0 - flow_11_12_0_0 - flow_11_13_0_0
   - flow_11_14_0_0 - flow_11_15_0_0 - flow_11_16_0_0 - flow_11_17_0_0
   - flow_11_18_0_0 - flow_11_19_0_0 + flow_12_11_0_0 + flow_13_11_0_0
   + flow_15_11_0_0 + flow_16_11_0_0 + flow_18_11_0_0 = 1
 one_parent_12: edge_2_12_0_0 + edge_3_12_0_0 + edge_6_12_0_0
   + edge_8_12_0_0 + edge_9_12_0_0 + edge_10_12_0_0 + edge_11_12_0_0
   + edge_13_12_0_0 + edge_14_12_0_0 + edge_15_12_0_0 + edge_16_12_0_0
   + edge_18_12_0_0 = 1
 consume_one_flow_unit_12: flow_2_12_0_0 + flow_3_12_0_0 + flow_6_12_0_0
   + flow_8_12_0_0 + flow_9_12_0_0 + flow_10_12_0_0 + flow_11_12_0_0
   - flow_12_9_0_0 - flow_12_11_0_0 - flow_12_13_0_0 - flow_12_16_0_0
   + flow_13_12_0_0 + flow_14_12_0_0 + flow_15_12_0_0 + flow_16_12_0_0
   + flow_18_12_0_0 = 1
 one_parent_13: edge_0_13_0_0 + edge_2_13_0_0 + edge_3_13_0_0
   + edge_6_13_0_0 + edge_8_13_0_0 + edge_11_13_0_0 + edge_12_13_0_0
   + edge_14_13_0_0 + edge_15_13_0_0 + edge_16_13_0_0 + edge_17_13_0_0
   + edge_18_13_0_0 = 1
 consume_one_flow_unit_13: flow_0_13_0_0 + flow_2_13_0_0 + flow_3_13_0_0
   + flow_6_13_0_0 + flow_8_13_0_0 + flow_11_13_0_0 + flow_12_13_0_0
   - flow_13_1_0_0 - flow_13_2_0_0 - flow_13_3_0_0 - flow_13_5_0_0
   - flow_13_6_0_0 - flow_13_7_0_0 - flow_13_8_0_0 - flow_13_9_0_0
   - flow_13_10_0_0 - flow_13_11_0_0 - flow_13_12_0_0 - flow_13_14_0_0
   - flow_13_15_0_0 - flow_13_16_0_0 - flow_13_17_0_0 - flow_13_18_0_0
   - flow_13_19_0_0 + flow_14_13_0_0 + flow_15_13_0_0 + flow_16_13_0_0
   + flow_17_13_0_0 + flow_18_13_0_0 = 1
 one_parent_14: edge_3_14_0_0 + edge_6_14_0_0 + edge_8_14_0_0
   + edge_11_14_0_0 + edge_13_14_0_0 + edge_15_14_0_0 + edge_17_14_0_0
   + edge_18_14_0_0 = 1
 consume_one_flow_unit_14: flow_3_14_0_0 + flow_6_14_0_0 + flow_8_14_0_0
   + flow_11_14_0_0 + flow_13_14_0_0 - flow_14_12_0_0 - flow_14_13_0_0
   - flow_14_17_0_0 - flow_14_18_0_0 + flow_15_14_0_0 + flow_17_14_0_0
   + flow_18_14_0_0 = 1
 one_parent_15: edge_0_15_0_0 + edge_2_15_0_0 + edge_3_15_0_0
   + edge_6_15_0_0 + edge_8_15_0_0 + edge_11_15_0_0 + edge_13_15_0_0
   + edge_17_15_0_0 + edge_18_15_0_0 = 1
 consume_one_flow_unit_15: flow_0_15_0_0 + flow_2_15_0_0 + flow_3_15_0_0
   + flow_6_15_0_0 + flow_8_15_0_0 + flow_11_15_0_0 + flow_13_15_0_0
   - flow_15_1_0_0 - flow_15_2_0_0 - flow_15_3_0_0 - flow_15_4_0_0
   - flow_15_5_0_0 - flow_15_6_0_0 - flow_15_8_0_0 - flow_15_9_0_0
   - flow_15_10_0_0 - flow_15_11_0_0 - flow_15_12_0_0 - flow_15_13_0_0
   - flow_15_14_0_0 - flow_15_17_0_0 - flow_15_18_0_0 - flow_15_19_0_0
   + flow_17_15_0_0 + flow_18_15_0_0 = 1
 one_parent_16: edge_0_16_0_0 + edge_3_16_0_0 + edge_6_16_0_0
   + edge_8_16_0_0 + edge_11_16_0_0 + edge_12_16_0_0 + edge_13_16_0_0
   + edge_17_16_0_0 + edge_18_16_0_0 = 1
 consume_one_flow_unit_16: flow_0_16_0_0 + flow_3_16_0_0 + flow_6_16_0_0
   + flow_8_16_0_0 + flow_11_16_0_0 + flow_12_16_0_0 + flow_13_16_0_0
   - flow_16_2_0_0 - flow_16_3_0_0 - flow_16_5_0_0 - flow_16_6_0_0
   - flow_16_8_0_0 - flow_16_9_0_0 - flow_16_11_0_0 - flow_16_12_0_0
   - flow_16_13_0_0 - flow_16_17_0_0 - flow_16_18_0_0 - flow_16_19_0_0
   + flow_17_16_0_0 + flow_18_16_0_0 = 1
 one_parent_17: edge_3_17_0_0 + edge_6_17_0_0 + edge_8_17_0_0
   + edge_11_17_0_0 + edge_13_17_0_0 + edge_14_17_0_0 + edge_15_17_0_0
   + edge_16_17_0_0 + edge_18_17_0_0 + edge_19_17_0_0 = 1
 consume_one_flow_unit_17: flow_3_17_0_0 + flow_6_17_0_0 + flow_8_17_0_0
   + flow_11_17_0_0 + flow_13_17_0_0 + flow_14_17_0_0 + flow_15_17_0_0
   + flow_16_17_0_0 - flow_17_6_0_0 - flow_17_13_0_0 - flow_17_14_0_0
   - flow_17_15_0_0 - flow_17_16_0_0 - flow_17_18_0_0 - flow_17_19_0_0
   + flow_18_17_0_0 + flow_19_17_0_0 = 1
 one_parent_18: edge_0_18_0_0 + edge_2_18_0_0 + edge_3_18_0_0
   + edge_6_18_0_0 + edge_8_18_0_0 + edge_11_18_0_0 + edge_13_18_0_0
   + edge_14_18_0_0 + edge_15_18_0_0 + edge_16_18_0_0 + edge_17_18_0_0
   + edge_19_18_0_0 = 1
 consume_one_flow_unit_18: flow_0_18_0_0 + flow_2_18_0_0 + flow_3_18_0_0
   + flow_6_18_0_0 + flow_8_18_0_0 + flow_11_18_0_0 + flow_13_18_0_0
   + flow_14_18_0_0 + flow_15_18_0_0 + flow_16_18_0_0 + flow_17_18_0_0
   - flow_18_2_0_0 - flow_18_3_0_0 - flow_18_4_0_0 - flow_18_5_0_0
   - flow_18_6_0_0 - flow_18_8_0_0 - flow_18_9_0_0 - flow_18_11_0_0
   - flow_18_12_0_0 - flow_18_13_0_0 - flow_18_14_0_0 - flow_18_15_0_0
   - flow_18_16_0_0 - flow_18_17_0_0 - flow_18_19_0_0 + flow_19_18_0_0 = 1
 one_parent_19: edge_2_19_0_0 + edge_3_19_0_0 + edge_6_19_0_0
   + edge_8_19_0_0 + edge_11_19_0_0 + edge_13_19_0_0 + edge_15_19_0_0
   + edge_16_19_0_0 + edge_17_19_0_0 + edge_18_19_0_0 = 1
 consume_one_flow_unit_19: flow_2_19_0_0 + flow_3_19_0_0 + flow_6_19_0_0
   + flow_8_19_0_0 + flow_11_19_0_0 + flow_13_19_0_0 + flow_15_19_0_0
   + flow_16_19_0_0 + flow_17_19_0_0 + flow_18_19_0_0 - flow_19_17_0_0
   - flow_19_18_0_0 = 1
 root_flow: flow_0_1_0_0 + flow_0_2_0_0 + flow_0_3_0_0 + flow_0_4_0_0
   + flow_0_5_0_0 + flow_0_6_0_0 + flow_0_8_0_0 + flow_0_9_0_0
   + flow_0_11_0_0 + flow_0_13_0_0 + flow_0_15_0_0 + flow_0_16_0_0
   + flow_0_18_0_0 = 19
 inactive_no_flow_0_1_0_0: flow_0_1_0_0 - 1000 edge_0_1_0_0 <= 0
 inactive_no_flow_0_2_0_0: flow_0_2_0_0 - 1000 edge_0_2_0_0 <= 0
 inactive_no_flow_0_3_0_0: flow_0_3_0_0 - 1000 edge_0_3_0_0 <= 0
 inactive_no_flow_0_4_0_0: flow_0_4_0_0 - 1000 edge_0_4_0_0 <= 0
 inactive_no_flow_0_5_0_0: flow_0_5_0_0 - 1000 edge_0_5_0_0 <= 0
 inactive_no_flow_0_6_0_0: flow_0_6_0_0 - 1000 edge_0_6_0_0 <= 0
 inactive_no_flow_0_8_0_0: flow_0_8_0_0 - 1000 edge_0_8_0_0 <= 0
 inactive_no_flow_0_9_0_0: flow_0_9_0_0 - 1000 edge_0_9_0_0 <= 0
 inactive_no_flow_0_11_0_0: flow_0_11_0_0 - 1000 edge_0_11_0_0 <= 0
 inactive_no_flow_0_13_0_0: flow_0_13_0_0 - 1000 edge_0_13_0_0 <= 0
 inactive_no_flow_0_15_0_0: flow_0_15_0_0 - 1000 edge_0_15_0_0 <= 0
 inactive_no_flow_0_16_0_0: flow_0_16_0_0 - 1000 edge_0_16_0_0 <= 0
 inactive_no_flow_0_18_0_0: flow_0_18_0_0 - 1000 edge_0_18_0_0 <= 0
 inactive_no_flow_1_2_0_0: flow_1_2_0_0 - 1000 edge_1_2_0_0 <= 0
 inactive_no_flow_1_3_0_0: flow_1_3_0_0 - 1000 edge_1_3_0_0 <= 0
 inactive_no_flow_1_5_0_0: flow_1_5_0_0 - 1000 edge_1_5_0_0 <= 0
 inactive_no_flow_1_6_0_0: flow_1_6_0_0 - 1000 edge_1_6_0_0 <= 0
 inactive_no_flow_1_8_0_0: flow_1_8_0_0 - 1000 edge_1_8_0_0 <= 0
 inactive_no_flow_1_10_0_0: flow_1_10_0_0 - 1000 edge_1_10_0_0 <= 0
 inactive_no_flow_1_11_0_0: flow_1_11_0_0 - 1000 edge_1_11_0_0 <= 0
 inactive_no_flow_2_1_0_0: flow_2_1_0_0 - 1000 edge_2_1_0_0 <= 0
 inactive_no_flow_2_3_0_0: flow_2_3_0_0 - 1000 edge_2_3_0_0 <= 0
 inactive_no_flow_2_4_0_0: flow_2_4_0_0 - 1000 edge_2_4_0_0 <= 0
 inactive_no_flow_2_5_0_0: flow_2_5_0_0 - 1000 edge_2_5_0_0 <= 0
 inactive_no_flow_2_6_0_0: flow_2_6_0_0 - 1000 edge_2_6_0_0 <= 0
 inactive_no_flow_2_8_0_0: flow_2_8_0_0 - 1000 edge_2_8_0_0 <= 0
 inactive_no_flow_2_9_0_0: flow_2_9_0_0 - 1000 edge_2_9_0_0 <= 0
 inactive_no_flow_2_10_0_0: flow_2_10_0_0 - 1000 edge_2_10_0_0 <= 0
 inactive_no_flow_2_11_0_0: flow_2_11_0_0 - 1000 edge_2_11_0_0 <= 0
 inactive_no_flow_2_12_0_0: flow_2_12_0_0 - 1000 edge_2_12_0_0 <= 0
 inactive_no_flow_2_13_0_0: flow_2_13_0_0 - 1000 edge_2_13_0_0 <= 0
 inactive_no_flow_2_15_0_0: flow_2_15_0_0 - 1000 edge_2_15_0_0 <= 0
 inactive_no_flow_2_18_0_0: flow_2_18_0_0 - 1000 edge_2_18_0_0 <= 0
 inactive_no_flow_2_19_0_0: flow_2_19_0_0 - 1000 edge_2_19_0_0 <= 0
 inactive_no_flow_3_1_0_0: flow_3_1_0_0 - 1000 edge_3_1_0_0 <= 0
 inactive_no_flow_3_2_0_0: flow_3_2_0_0 - 1000 edge_3_2_0_0 <= 0
 inactive_no_flow_3_3_0_0: flow_3_3_0_0 - 1000 edge_3_3_0_0 <= 0
 inactive_no_flow_3_4_0_0: flow_3_4_0_0 - 1000 edge_3_4_0_0 <= 0
 inactive_no_flow_3_5_0_0: flow_3_5_0_0 - 1000 edge_3_5_0_0 <= 0
 inactive_no_flow_3_6_0_0: flow_3_6_0_0 - 1000 edge_3_6_0_0 <= 0
 inactive_no_flow_3_7_0_0: flow_3_7_0_0 - 1000 edge_3_7_0_0 <= 0
 inactive_no_flow_3_8_0_0: flow_3_8_0_0 - 1000 edge_3_8_0_0 <= 0
 inactive_no_flow_3_9_0_0: flow_3_9_0_0 - 1000 edge_3_9_0_0 <= 0
 inactive_no_flow_3_10_0_0: flow_3_10_0_0 - 1000 edge_3_10_0_0 <= 0
 inactive_no_flow_3_11_0_0: flow_3_11_0_0 - 1000 edge_3_11_0_0 <= 0
 inactive_no_flow_3_12_0_0: flow_3_12_0_0 - 1000 edge_3_12_0_0 <= 0
 inactive_no_flow_3_13_0_0: flow_3_13_0_0 - 1000 edge_3_13_0_0 <= 0
 inactive_no_flow_3_14_0_0: flow_3_14_0_0 - 1000 edge_3_14_0_0 <= 0
 inactive_no_flow_3_15_0_0: flow_3_15_0_0 - 1000 edge_3_15_0_0 <= 0
 inactive_no_flow_3_16_0_0: flow_3_16_0_0 - 1000 edge_3_16_0_0 <= 0
 inactive_no_flow_3_17_0_0: flow_3_17_0_0 - 1000 edge_3_17_0_0 <= 0
 inactive_no_flow_3_18_0_0: flow_3_18_0_0 - 1000 edge_3_18_0_0 <= 0
 inactive_no_flow_3_19_0_0: flow_3_19_0_0 - 1000 edge_3_19_0_0 <= 0
 inactive_no_flow_4_3_0_0: flow_4_3_0_0 - 1000 edge_4_3_0_0 <= 0
 inactive_no_flow_4_5_0_0: flow_4_5_0_0 - 1000 edge_4_5_0_0 <= 0
 inactive_no_flow_4_6_0_0: flow_4_6_0_0 - 1000 edge_4_6_0_0 <= 0
 inactive_no_flow_5_1_0_0: flow_5_1_0_0 - 1000 edge_5_1_0_0 <= 0
 inactive_no_flow_5_2_0_0: flow_5_2_0_0 - 1000 edge_5_2_0_0 <= 0
 inactive_no_flow_5_3_0_0: flow_5_3_0_0 - 1000 edge_5_3_0_0 <= 0
 inactive_no_flow_5_4_0_0: flow_5_4_0_0 - 1000 edge_5_4_0_0 <= 0
 inactive_no_flow_5_6_0_0: flow_5_6_0_0 - 1000 edge_5_6_0_0 <= 0
 inactive_no_flow_5_8_0_0: flow_5_8_0_0 - 1000 edge_5_8_0_0 <= 0
 inactive_no_flow_5_9_0_0: flow_5_9_0_0 - 1000 edge_5_9_0_0 <= 0
 inactive_no_flow_5_10_0_0: flow_5_10_0_0 - 1000 edge_5_10_0_0 <= 0
 inactive_no_flow_6_1_0_0: flow_6_1_0_0 - 1000 edge_6_1_0_0 <= 0
 inactive_no_flow_6_2_0_0: flow_6_2_0_0 - 1000 edge_6_2_0_0 <= 0
 inactive_no_flow_6_3_0_0: flow_6_3_0_0 - 1000 edge_6_3_0_0 <= 0
 inactive_no_flow_6_4_0_0: flow_6_4_0_0 - 1000 edge_6_4_0_0 <= 0
 inactive_no_flow_6_5_0_0: flow_6_5_0_0 - 1000 edge_6_5_0_0 <= 0
 inactive_no_flow_6_7_0_0: flow_6_7_0_0 - 1000 edge_6_7_0_0 <= 0
 inactive_no_flow_6_8_0_0: flow_6_8_0_0 - 1000 edge_6_8_0_0 <= 0
 inactive_no_flow_6_9_0_0: flow_6_9_0_0 - 1000 edge_6_9_0_0 <= 0
 inactive_no_flow_6_10_0_0: flow_6_10_0_0 - 1000 edge_6_10_0_0 <= 0
 inactive_no_flow_6_11_0_0: flow_6_11_0_0 - 1000 edge_6_11_0_0 <= 0
 inactive_no_flow_6_12_0_0: flow_6_12_0_0 - 1000 edge_6_12_0_0 <= 0
 inactive_no_flow_6_13_0_0: flow_6_13_0_0 - 1000 edge_6_13_0_0 <= 0
 inactive_no_flow_6_14_0_0: flow_6_14_0_0 - 1000 edge_6_14_0_0 <= 0
 inactive_no_flow_6_15_0_0: flow_6_15_0_0 - 1000 edge_6_15_0_0 <= 0
 inactive_no_flow_6_16_0_0: flow_6_16_0_0 - 1000 edge_6_16_0_0 <= 0
 inactive_no_flow_6_17_0_0: flow_6_17_0_0 - 1000 edge_6_17_0_0 <= 0
 inactive_no_flow_6_18_0_0: flow_6_18_0_0 - 1000 edge_6_18_0_0 <= 0
 inactive_no_flow_6_19_0_0: flow_6_19_0_0 - 1000 edge_6_19_0_0 <= 0
 inactive_no_flow_7_5_0_0: flow_7_5_0_0 - 1000 edge_7_5_0_0 <= 0
 inactive_no_flow_7_10_0_0: flow_7_10_0_0 - 1000 edge_7_10_0_0 <= 0
 inactive_no_flow_8_1_0_0: flow_8_1_0_0 - 1000 edge_8_1_0_0 <= 0
 inactive_no_flow_8_2_0_0: flow_8_2_0_0 - 1000 edge_8_2_0_0 <= 0
 inactive_no_flow_8_3_0_0: flow_8_3_0_0 - 1000 edge_8_3_0_0 <= 0
 inactive_no_flow_8_4_0_0: flow_8_4_0_0 - 1000 edge_8_4_0_0 <= 0
 inactive_no_flow_8_5_0_0: flow_8_5_0_0 - 1000 edge_8_5_0_0 <= 0
 inactive_no_flow_8_6_0_0: flow_8_6_0_0 - 1000 edge_8_6_0_0 <= 0
 inactive_no_flow_8_7_0_0: flow_8_7_0_0 - 1000 edge_8_7_0_0 <= 0
 inactive_no_flow_8_9_0_0: flow_8_9_0_0 - 1000 edge_8_9_0_0 <= 0
 inactive_no_flow_8_10_0_0: flow_8_10_0_0 - 1000 edge_8_10_0_0 <= 0
 inactive_no_flow_8_11_0_0: flow_8_11_0_0 - 1000 edge_8_11_0_0 <= 0
 inactive_no_flow_8_12_0_0: flow_8_12_0_0 - 1000 edge_8_12_0_0 <= 0
 inactive_no_flow_8_13_0_0: flow_8_13_0_0 - 1000 edge_8_13_0_0 <= 0
 inactive_no_flow_8_14_0_0: flow_8_14_0_0 - 1000 edge_8_14_0_0 <= 0
 inactive_no_flow_8_15_0_0: flow_8_15_0_0 - 1000 edge_8_15_0_0 <= 0
 inactive_no_flow_8_16_0_0: flow_8_16_0_0 - 1000 edge_8_16_0_0 <= 0
 inactive_no_flow_8_17_0_0: flow_8_17_0_0 - 1000 edge_8_17_0_0 <= 0
 inactive_no_flow_8_18_0_0: flow_8_18_0_0 - 1000 edge_8_18_0_0 <= 0
 inactive_no_flow_8_19_0_0: flow_8_19_0_0 - 1000 edge_8_19_0_0 <= 0
 inactive_no_flow_9_2_0_0: flow_9_2_0_0 - 1000 edge_9_2_0_0 <= 0
 inactive_no_flow_9_3_0_0: flow_9_3_0_0 - 1000 edge_9_3_0_0 <= 0
 inactive_no_flow_9_5_0_0: flow_9_5_0_0 - 1000 edge_9_5_0_0 <= 0
 inactive_no_flow_9_6_0_0: flow_9_6_0_0 - 1000 edge_9_6_0_0 <= 0
 inactive_no_flow_9_8_0_0: flow_9_8_0_0 - 1000 edge_9_8_0_0 <= 0
 inactive_no_flow_9_10_0_0: flow_9_10_0_0 - 1000 edge_9_10_0_0 <= 0
 inactive_no_flow_9_11_0_0: flow_9_11_0_0 - 1000 edge_9_11_0_0 <= 0
 inactive_no_flow_9_12_0_0: flow_9_12_0_0 - 1000 edge_9_12_0_0 <= 0
 inactive_no_flow_10_8_0_0: flow_10_8_0_0 - 1000 edge_10_8_0_0 <= 0
 inactive_no_flow_10_9_0_0: flow_10_9_0_0 - 1000 edge_10_9_0_0 <= 0
 inactive_no_flow_10_11_0_0: flow_10_11_0_0 - 1000 edge_10_11_0_0 <= 0
 inactive_no_flow_10_12_0_0: flow_10_12_0_0 - 1000 edge_10_12_0_0 <= 0
 inactive_no_flow_11_1_0_0: flow_11_1_0_0 - 1000 edge_11_1_0_0 <= 0
 inactive_no_flow_11_2_0_0: flow_11_2_0_0 - 1000 edge_11_2_0_0 <= 0
 inactive_no_flow_11_3_0_0: flow_11_3_0_0 - 1000 edge_11_3_0_0 <= 0
 inactive_no_flow_11_4_0_0: flow_11_4_0_0 - 1000 edge_11_4_0_0 <= 0
 inactive_no_flow_11_5_0_0: flow_11_5_0_0 - 1000 edge_11_5_0_0 <= 0
 inactive_no_flow_11_6_0_0: flow_11_6_0_0 - 1000 edge_11_6_0_0 <= 0
 inactive_no_flow_11_8_0_0: flow_11_8_0_0 - 1000 edge_11_8_0_0 <= 0
 inactive_no_flow_11_9_0_0: flow_11_9_0_0 - 1000 edge_11_9_0_0 <= 0
 inactive_no_flow_11_10_0_0: flow_11_10_0_0 - 1000 edge_11_10_0_0 <= 0
 inactive_no_flow_11_12_0_0: flow_11_12_0_0 - 1000 edge_11_12_0_0 <= 0
 inactive_no_flow_11_13_0_0: flow_11_13_0_0 - 1000 edge_11_13_0_0 <= 0
 inactive_no_flow_11_14_0_0: flow_11_14_0_0 - 1000 edge_11_14_0_0 <= 0
 inactive_no_flow_11_15_0_0: flow_11_15_0_0 - 1000 edge_11_15_0_0 <= 0
 inactive_no_flow_11_16_0_0: flow_11_16_0_0 - 1000 edge_11_16_0_0 <= 0
 inactive_no_flow_11_17_0_0: flow_11_17_0_0 - 1000 edge_11_17_0_0 <= 0
 inactive_no_flow_11_18_0_0: flow_11_18_0_0 - 1000 edge_11_18_0_0 <= 0
 inactive_no_flow_11_19_0_0: flow_11_19_0_0 - 1000 edge_11_19_0_0 <= 0
 inactive_no_flow_12_9_0_0: flow_12_9_0_0 - 1000 edge_12_9_0_0 <= 0
 inactive_no_flow_12_11_0_0: flow_12_11_0_0 - 1000 edge_12_11_0_0 <= 0
 inactive_no_flow_12_13_0_0: flow_12_13_0_0 - 1000 edge_12_13_0_0 <= 0
 inactive_no_flow_12_16_0_0: flow_12_16_0_0 - 1000 edge_12_16_0_0 <= 0
 inactive_no_flow_13_1_0_0: flow_13_1_0_0 - 1000 edge_13_1_0_0 <= 0
 inactive_no_flow_13_2_0_0: flow_13_2_0_0 - 1000 edge_13_2_0_0 <= 0
 inactive_no_flow_13_3_0_0: flow_13_3_0_0 - 1000 edge_13_3_0_0 <= 0
 inactive_no_flow_13_5_0_0: flow_13_5_0_0 - 1000 edge_13_5_0_0 <= 0
 inactive_no_flow_13_6_0_0: flow_13_6_0_0 - 1000 edge_13_6_0_0 <= 0
 inactive_no_flow_13_7_0_0: flow_13_7_0_0 - 1000 edge_13_7_0_0 <= 0
 inactive_no_flow_13_8_0_0: flow_13_8_0_0 - 1000 edge_13_8_0_0 <= 0
 inactive_no_flow_13_9_0_0: flow_13_9_0_0 - 1000 edge_13_9_0_0 <= 0
 inactive_no_flow_13_10_0_0: flow_13_10_0_0 - 1000 edge_13_10_0_0 <= 0
 inactive_no_flow_13_11_0_0: flow_13_11_0_0 - 1000 edge_13_11_0_0 <= 0
 inactive_no_flow_13_12_0_0: flow_13_12_0_0 - 1000 edge_13_12_0_0 <= 0
 inactive_no_flow_13_14_0_0: flow_13_14_0_0 - 1000 edge_13_14_0_0 <= 0
 inactive_no_flow_13_15_0_0: flow_13_15_0_0 - 1000 edge_13_15_0_0 <= 0
 inactive_no_flow_13_16_0_0: flow_13_16_0_0 - 1000 edge_13_16_0_0 <= 0
 inactive_no_flow_13_17_0_0: flow_13_17_0_0 - 1000 edge_13_17_0_0 <= 0
 inactive_no_flow_13_18_0_0: flow_13_18_0_0 - 1000 edge_13_18_0_0 <= 0
 inactive_no_flow_13_19_0_0: flow_13_19_0_0 - 1000 edge_13_19_0_0 <= 0
 inactive_no_flow_14_12_0_0: flow_14_12_0_0 - 1000 edge_14_12_0_0 <= 0
 inactive_no_flow_14_13_0_0: flow_14_13_0_0 - 1000 edge_14_13_0_0 <= 0
 inactive_no_flow_14_17_0_0: flow_14_17_0_0 - 1000 edge_14_17_0_0 <= 0
 inactive_no_flow_14_18_0_0: flow_14_18_0_0 - 1000 edge_14_18_0_0 <= 0
 inactive_no_flow_15_1_0_0: flow_15_1_0_0 - 1000 edge_15_1_0_0 <= 0
 inactive_no_flow_15_2_0_0: flow_15_2_0_0 - 1000 edge_15_2_0_0 <= 0
 inactive_no_flow_15_3_0_0: flow_15_3_0_0 - 1000 edge_15_3_0_0 <= 0
 inactive_no_flow_15_4_0_0: flow_15_4_0_0 - 1000 edge_15_4_0_0 <= 0
 inactive_no_flow_15_5_0_0: flow_15_5_0_0 - 1000 edge_15_5_0_0 <= 0
 inactive_no_flow_15_6_0_0: flow_15_6_0_0 - 1000 edge_15_6_0_0 <= 0
 inactive_no_flow_15_8_0_0: flow_15_8_0_0 - 1000 edge_15_8_0_0 <= 0
 inactive_no_flow_15_9_0_0: flow_15_9_0_0 - 1000 edge_15_9_0_0 <= 0
 inactive_no_flow_15_10_0_0: flow_15_10_0_0 - 1000 edge_15_10_0_0 <= 0
 inactive_no_flow_15_11_0_0: flow_15_11_0_0 - 1000 edge_15_11_0_0 <= 0
 inactive_no_flow_15_12_0_0: flow_15_12_0_0 - 1000 edge_15_12_0_0 <= 0
 inactive_no_flow_15_13_0_0: flow_15_13_0_0 - 1000 edge_15_13_0_0 <= 0
 inactive_no_flow_15_14_0_0: flow_15_14_0_0 - 1000 edge_15_14_0_0 <= 0
 inactive_no_flow_15_17_0_0: flow_15_17_0_0 - 1000 edge_15_17_0_0 <= 0
 inactive_no_flow_15_18_0_0: flow_15_18_0_0 - 1000 edge_15_18_0_0 <= 0
 inactive_no_flow_15_19_0_0: flow_15_19_0_0 - 1000 edge_15_19_0_0 <= 0
 inactive_no_flow_16_2_0_0: flow_16_2_0_0 - 1000 edge_16_2_0_0 <= 0
 inactive_no_flow_16_3_0_0: flow_16_3_0_0 - 1000 edge_16_3_0_0 <= 0
 inactive_no_flow_16_5_0_0: flow_16_5_0_0 - 1000 edge_16_5_0_0 <= 0
 inactive_no_flow_16_6_0_0: flow_16_6_0_0 - 1000 edge_16_6_0_0 <= 0
 inactive_no_flow_16_8_0_0: flow_16_8_0_0 - 1000 edge_16_8_0_0 <= 0
 inactive_no_flow_16_9_0_0: flow_16_9_0_0 - 1000 edge_16_9_0_0 <= 0
 inactive_no_flow_16_11_0_0: flow_16_11_0_0 - 1000 edge_16_11_0_0 <= 0
 inactive_no_flow_16_12_0_0: flow_16_12_0_0 - 1000 edge_16_12_0_0 <= 0
 inactive_no_flow_16_13_0_0: flow_16_13_0_0 - 1000 edge_16_13_0_0 <= 0
 inactive_no_flow_16_17_0_0: flow_16_17_0_0 - 1000 edge_16_17_0_0 <= 0
 inactive_no_flow_16_18_0_0: flow_16_18_0_0 - 1000 edge_16_18_0_0 <= 0
 inactive_no_flow_16_19_0_0: flow_16_19_0_0 - 1000 edge_16_19_0_0 <= 0
 inactive_no_flow_17_6_0_0: flow_17_6_0_0 - 1000 edge_17_6_0_0 <= 0
 inactive_no_flow_17_13_0_0: flow_17_13_0_0 - 1000 edge_17_13_0_0 <= 0
 inactive_no_flow_17_14_0_0: flow_17_14_0_0 - 1000 edge_17_14_0_0 <= 0
 inactive_no_flow_17_15_0_0: flow_17_15_0_0 - 1000 edge_17_15_0_0 <= 0
 inactive_no_flow_17_16_0_0: flow_17_16_0_0 - 1000 edge_17_16_0_0 <= 0
 inactive_no_flow_17_18_0_0: flow_17_18_0_0 - 1000 edge_17_18_0_0 <= 0
 inactive_no_flow_17_19_0_0: flow_17_19_0_0 - 1000 edge_17_19_0_0 <= 0
 inactive_no_flow_18_2_0_0: flow_18_2_0_0 - 1000 edge_18_2_0_0 <= 0
 inactive_no_flow_18_3_0_0: flow_18_3_0_0 - 1000 edge_18_3_0_0 <= 0
 inactive_no_flow_18_4_0_0: flow_18_4_0_0 - 1000 edge_18_4_0_0 <= 0
 inactive_no_flow_18_5_0_0: flow_18_5_0_0 - 1000 edge_18_5_0_0 <= 0
 inactive_no_flow_18_6_0_0: flow_18_6_0_0 - 1000 edge_18_6_0_0 <= 0
 inactive_no_flow_18_8_0_0: flow_18_8_0_0 - 1000 edge_18_8_0_0 <= 0
 inactive_no_flow_18_9_0_0: flow_18_9_0_0 - 1000 edge_18_9_0_0 <= 0
 inactive_no_flow_18_11_0_0: flow_18_11_0_0 - 1000 edge_18_11_0_0 <= 0
 inactive_no_flow_18_12_0_0: flow_18_12_0_0 - 1000 edge_18_12_0_0 <= 0
 inactive_no_flow_18_13_0_0: flow_18_13_0_0 - 1000 edge_18_13_0_0 <= 0
 inactive_no_flow_18_14_0_0: flow_18_14_0_0 - 1000 edge_18_14_0_0 <= 0
 inactive_no_flow_18_15_0_0: flow_18_15_0_0 - 1000 edge_18_15_0_0 <= 0
 inactive_no_flow_18_16_0_0: flow_18_16_0_0 - 1000 edge_18_16_0_0 <= 0
 inactive_no_flow_18_17_0_0: flow_18_17_0_0 - 1000 edge_18_17_0_0 <= 0
 inactive_no_flow_18_19_0_0: flow_18_19_0_0 - 1000 edge_18_19_0_0 <= 0
 inactive_no_flow_19_17_0_0: flow_19_17_0_0 - 1000 edge_19_17_0_0 <= 0
 inactive_no_flow_19_18_0_0: flow_19_18_0_0 - 1000 edge_19_18_0_0 <= 0
Bounds
Binaries
 edge_0_1_0_0 edge_0_2_0_0 edge_0_3_0_0 edge_0_4_0_0 edge_0_5_0_0
 edge_0_6_0_0 edge_0_8_0_0 edge_0_9_0_0 edge_0_11_0_0 edge_0_13_0_0
 edge_0_15_0_0 edge_0_16_0_0 edge_0_18_0_0 edge_1_2_0_0 edge_1_3_0_0
 edge_1_5_0_0 edge_1_6_0_0 edge_1_8_0_0 edge_1_10_0_0 edge_1_11_0_0
 edge_2_1_0_0 edge_2_3_0_0 edge_2_4_0_0 edge_2_5_0_0 edge_2_6_0_0
 edge_2_8_0_0 edge_2_9_0_0 edge_2_10_0_0 edge_2_11_0_0 edge_2_12_0_0
 edge_2_13_0_0 edge_2_15_0_0 edge_2_18_0_0 edge_2_19_0_0 edge_3_1_0_0
 edge_3_2_0_0 edge_3_3_0_0 edge_3_4_0_0 edge_3_5_0_0 edge_3_6_0_0
 edge_3_7_0_0 edge_3_8_0_0 edge_3_9_0_0 edge_3_10_0_0 edge_3_11_0_0
 edge_3_12_0_0 edge_3_13_0_0 edge_3_14_0_0 edge_3_15_0_0 edge_3_16_0_0
 edge_3_17_0_0 edge_3_18_0_0 edge_3_19_0_0 edge_4_3_0_0 edge_4_5_0_0
 edge_4_6_0_0 edge_5_1_0_0 edge_5_2_0_0 edge_5_3_0_0 edge_5_4_0_0
 edge_5_6_0_0 edge_5_8_0_0 edge_5_9_0_0 edge_5_10_0_0 edge_6_1_0_0
 edge_6_2_0_0 edge_6_3_0_0 edge_6_4_0_0 edge_6_5_0_0 edge_6_7_0_0
 edge_6_8_0_0 edge_6_9_0_0 edge_6_10_0_0 edge_6_11_0_0 edge_6_12_0_0
 edge_6_13_0_0 edge_6_14_0_0 edge_6_15_0_0 edge_6_16_0_0 edge_6_17_0_0
 edge_6_18_0_0 edge_6_19_0_0 edge_7_5_0_0 edge_7_10_0_0 edge_8_1_0_0
 edge_8_2_0_0 edge_8_3_0_0 edge_8_4_0_0 edge_8_5_0_0 edge_8_6_0_0
 edge_8_7_0_0 edge_8_9_0_0 edge_8_10_0_0 edge_8_11_0_0 edge_8_12_0_0
 edge_8_13_0_0 edge_8_14_0_0 edge_8_15_0_0 edge_8_16_0_0 edge_8_17_0_0
 edge_8_18_0_0 edge_8_19_0_0 edge_9_2_0_0 edge_9_3_0_0 edge_9_5_0_0
 edge_9_6_0_0 edge_9_8_0_0 edge_9_10_0_0 edge_9_11_0_0 edge_9_12_0_0
 edge_10_8_0_0 edge_10_9_0_0 edge_10_11_0_0 edge_10_12_0_0 edge_11_1_0_0
 edge_11_2_0_0 edge_11_3_0_0 edge_11_4_0_0 edge_11_5_0_0 edge_11_6_0_0
 edge_11_8_0_0 edge_11_9_0_0 edge_11_10_0_0 edge_11_12_0_0 edge_11_13_0_0
 edge_11_14_0_0 edge_11_15_0_0 edge_11_16_0_0 edge_11_17_0_0 edge_11_18_0_0
 edge_11_19_0_0 edge_12_9_0_0 edge_12_11_0_0 edge_12_13_0_0 edge_12_16_0_0
 edge_13_1_0_0 edge_13_2_0_0 edge_13_3_0_0 edge_13_5_0_0 edge_13_6_0_0
 edge_13_7_0_0 edge_13_8_0_0 edge_13_9_0_0 edge_13_10_0_0 edge_13_11_0_0
 edge_13_12_0_0 edge_13_14_0_0 edge_13_15_0_0 edge_13_16_0_0 edge_13_17_0_0
 edge_13_18_0_0 edge_13_19_0_0 edge_14_12_0_0 edge_14_13_0_0 edge_14_17_0_0
 edge_14_18_0_0 edge_15_1_0_0 edge_15_2_0_0 edge_15_3_0_0 edge_15_4_0_0
 edge_15_5_0_0 edge_15_6_0_0 edge_15_8_0_0 edge_15_9_0_0 edge_15_10_0_0
 edge_15_11_0_0 edge_15_12_0_0 edge_15_13_0_0 edge_15_14_0_0 edge_15_17_0_0
 edge_15_18_0_0 edge_15_19_0_0 edge_16_2_0_0 edge_16_3_0_0 edge_16_5_0_0
 edge_16_6_0_0 edge_16_8_0_0 edge_16_9_0_0 edge_16_11_0_0 edge_16_12_0_0
 edge_16_13_0_0 edge_16_17_0_0 edge_16_18_0_0 edge_16_19_0_0 edge_17_6_0_0
 edge_17_13_0_0 edge_17_14_0_0 edge_17_15_0_0 edge_17_16_0_0 edge_17_18_0_0
 edge_17_19_0_0 edge_18_2_0_0 edge_18_3_0_0 edge_18_4_0_0 edge_18_5_0_0
 edge_18_6_0_0 edge_18_8_0_0 edge_18_9_0_0 edge_18_11_0_0 edge_18_12_0_0
 edge_18_13_0_0 edge_18_14_0_0 edge_18_15_0_0 edge_18_16_0_0 edge_18_17_0_0
 edge_18_19_0_0 edge_19_17_0_0 edge_19_18_0_0
End
